
  22    4
  10   10   10   10

   0   0   0   0   0   9 2 3 4 5 6 9 11 13 21 
   3  10  10  10  10   4 19 12 8 7 
   1  10  10  10  10   4 20 18 16 8 
   3  10  10  10  10   4 19 18 16 8 
   4  10  10  10  10   3 18 8 7 
   7  10  10  10  10   6 19 18 17 16 15 14 
   6  10  10  10  10   3 17 16 10 
   4  10  10  10  10   2 17 10 
  10  10  10  10  10   3 17 15 14 
   7  10  10  10  10   2 15 14 
   8  10  10  10  10   2 16 14 
   4  10  10  10  10   1 16 
   4  10  10  10  10   1 14 
   6  10  10  10  10   1 22
   9  10  10  10  10   1 22
   8  10  10  10  10   1 22
   8  10  10  10  10   1 22
   8  10  10  10  10   1 22
   4  10  10  10  10   1 22
   4  10  10  10  10   1 22
   6  10  10  10  10   1 22
   0   0   0   0   0   0 
